
Gurobi 9.1.2 (linux64) logging started Sat Mar 19 12:41:47 2022

Changed value of parameter LogFile to /home/DAVIDSON/doflocco/Graph_Pebbling/results/symmetry/bound-01/v-(0, 7)ls_sym_v-(0, 7).log
   Prev:   Default: 
Changed value of parameter MIPFocus to 1
   Prev: 0  Min: 0  Max: 3  Default: 0
Changed value of parameter Threads to 4
   Prev: 0  Min: 0  Max: 1024  Default: 0
Changed value of parameter TimeLimit to 1800.0
   Prev: inf  Min: 0.0  Max: inf  Default: inf
Warning: variable name "X[(1, 0),(0, 0)]" has a space
Warning: constraint name "flow-constr-t0-v(0, 7)" has a space
Warning: to let Gurobi read it back, use rlp format
Gurobi Optimizer version 9.1.2 build v9.1.2rc0 (linux64)
Thread count: 16 physical cores, 32 logical processors, using up to 4 threads
Optimize a model with 3645 rows, 3264 columns and 12432 nonzeros
Model fingerprint: 0x81a865ce
Variable types: 384 continuous, 2880 integer (2880 binary)
Coefficient statistics:
  Matrix range     [1e+00, 7e+04]
  Objective range  [2e-01, 2e-01]
  Bounds range     [1e+00, 3e+04]
  RHS range        [1e+00, 7e+04]
Presolve removed 249 rows and 252 columns
Presolve time: 0.04s
Presolved: 3396 rows, 3012 columns, 22548 nonzeros
Variable types: 384 continuous, 2628 integer (2628 binary)
Found heuristic solution: objective 633.3333333

Root relaxation: objective 6.400000e+01, 164 iterations, 0.00 seconds

    Nodes    |    Current Node    |     Objective Bounds      |     Work
 Expl Unexpl |  Obj  Depth IntInf | Incumbent    BestBd   Gap | It/Node Time

     0     0   64.00000    0   50  633.33333   64.00000  89.9%     -    0s
H    0     0                     632.1666666   64.00000  89.9%     -    0s
H    0     0                     629.4999999   64.00000  89.8%     -    0s
H    0     0                     533.5000000   64.00000  88.0%     -    0s
H    0     0                     516.8333333   64.00000  87.6%     -    0s
H    0     0                     320.8333333   64.00000  80.1%     -    0s
     0     0   64.00000    0   96  320.83333   64.00000  80.1%     -    0s
     0     0   64.00000    0  100  320.83333   64.00000  80.1%     -    0s
H    0     0                     124.0000000   64.00000  48.4%     -    0s
     0     0   64.00000    0   46  124.00000   64.00000  48.4%     -    0s
H    0     0                     117.7500000   64.00000  45.6%     -    0s
     0     0   64.00000    0   52  117.75000   64.00000  45.6%     -    0s
H    0     0                     106.5000000   64.00000  39.9%     -    0s
H    0     0                     105.3000000   64.00000  39.2%     -    0s
H    0     0                      95.9666667   64.00000  33.3%     -    0s
     0     0   64.00000    0   47   95.96667   64.00000  33.3%     -    0s
H    0     0                      81.0333333   64.00000  21.0%     -    0s
     0     0   64.00000    0   49   81.03333   64.00000  21.0%     -    0s
     0     0   64.00000    0   32   81.03333   64.00000  21.0%     -    1s
H    0     0                      80.4666667   64.00000  20.5%     -    1s
     0     0   64.00000    0   40   80.46667   64.00000  20.5%     -    1s
     0     0   64.00000    0   28   80.46667   64.00000  20.5%     -    1s
H    0     0                      79.6666667   64.00000  19.7%     -    1s
H    0     0                      73.0000000   64.00000  12.3%     -    1s
     0     2   64.00000    0   28   73.00000   64.00000  12.3%     -    1s
H   32    36                      72.5000000   64.00000  11.7%  24.4    2s
H   34    36                      71.7500000   64.00000  10.8%  23.1    2s
H   63    68                      71.7000000   64.00000  10.7%  15.1    2s
H   64    68                      71.6875000   64.00000  10.7%  14.8    2s
H   65    68                      71.5322581   64.00000  10.5%  14.6    2s
H   65    68                      69.3333333   64.00000  7.69%  14.6    2s
H  126   162                      69.0000000   64.00000  7.25%   9.2    3s

Cutting planes:
  Cover: 20
  Implied bound: 37
  Clique: 7
  MIR: 9
  Flow cover: 21
  RLT: 13
  Relax-and-lift: 4

Explored 165 nodes (11001 simplex iterations) in 3.66 seconds
Thread count was 4 (of 32 available processors)

Solution count 10: 69 69.3333 71.5323 ... 80.4667

Solve interrupted
Best objective 6.899999999996e+01, best bound 6.400000000000e+01, gap 7.2464%
